saves/map
1,0,2,2,21
1,0,2,3,21
1,0,2,4,21
1,0,2,4,18
1,0,2,4,17
1,0,2,4,16
1,0,2,4,15
1,0,2,4,14
1,0,2,4,13
1,0,2,4,12
1,0,2,4,11
1,0,2,4,10
1,0,2,5,10
1,0,2,6,10
1,0,2,7,10
1,0,2,8,10
1,0,2,9,10
1,0,2,10,10
1,0,2,11,10
1,0,2,12,10
1,0,2,13,10
1,0,2,14,10
1,0,2,15,10
1,0,2,19,10
1,0,2,18,10
1,0,2,17,10
1,0,2,16,10
1,0,0,4,9
1,0,3,4,6
1,0,3,4,5
1,0,3,4,4
1,0,3,4,3
1,0,3,4,2
1,0,1,5,9
1,0,0,6,9
1,0,1,7,9
1,0,0,8,9
1,0,1,9,9
1,0,0,10,9
1,0,0,11,9
1,0,0,12,9
1,0,1,13,9
1,0,0,14,9
1,0,1,15,9
1,0,0,16,9
1,0,1,17,9
1,0,0,18,9
1,0,1,19,9
1,0,3,6,2
1,0,3,6,3
1,0,3,6,4
1,0,3,6,6
1,0,3,6,5
0,0,3,8,4
0,0,3,9,3
0,0,3,10,3
0,0,3,11,3
0,0,3,12,4
1,0,3,14,5
1,0,3,14,6
1,0,3,14,4
1,0,3,14,3
1,0,3,14,2
1,0,3,15,3
1,0,3,16,2
1,0,3,16,3
1,0,3,16,4
1,0,3,16,5
1,0,3,16,6
0,0,3,16,7
0,0,3,16,8
0,0,3,4,7
0,0,3,4,8
1,0,4,5,4
1,0,5,4,1
1,0,5,6,1
1,0,3,5,3
1,0,5,14,1
1,0,5,16,1
0,0,3,7,4
0,0,5,8,3
0,0,5,12,3
0,0,3,13,4
0,0,4,13,5
0,0,4,11,4
0,0,4,9,4
0,0,4,7,5
0,0,4,15,4
1,0,4,15,4
1,0,11,10,8
1,0,10,10,7
1,0,9,16,8
1,0,8,16,7
1,0,9,18,8
1,0,9,19,8
1,0,8,18,7
1,0,8,19,7
1,0,7,5,8
1,0,7,15,8
1,0,6,8,8
1,0,6,9,8
0,0,2,4,19
0,0,2,4,20
1,0,2,34,11
1,0,2,42,11
1,0,2,41,11
1,0,2,40,11
1,0,2,39,11
0,0,3,39,20
0,0,3,39,19
0,0,3,39,18
0,0,3,34,19
0,0,3,34,20
1,0,9,34,20
1,0,8,34,19
2,0,7,34,20
3,0,6,34,20
0,0,2,28,13
0,0,2,27,13
0,0,2,26,13
0,0,2,26,14
0,0,2,26,15
0,0,2,26,16
0,0,2,25,16
0,0,2,24,16
0,0,2,29,15
0,0,2,28,15
0,0,2,28,16
0,0,2,29,16
0,0,2,31,13
0,0,2,31,14
0,0,2,31,15
0,0,2,31,16
0,0,2,27,12
0,0,2,25,17
1,0,0,13,20
1,0,0,14,20
1,0,0,25,20
1,0,0,21,20
1,0,0,23,17
1,0,0,23,21
1,0,0,24,17
1,0,0,24,21
1,0,0,23,13
1,0,0,24,13
1,0,0,22,9
1,0,0,23,8
1,0,0,24,8
1,0,0,22,8
1,0,0,32,14
1,0,0,32,4
1,0,0,9,16
1,0,0,12,19
1,0,0,12,18
1,0,0,13,17
1,0,0,14,17
1,0,0,15,18
1,0,0,15,19
1,0,0,18,15
1,0,0,19,15
1,0,0,20,15
1,0,0,21,15
